
Gurobi 7.0.2 (linux64, Matlab) logging started Sun Sep  2 08:53:44 2018


Gurobi 7.0.2 (linux64) logging started Sun Sep  2 08:53:44 2018

Optimize a model with 23640 rows, 25839 columns and 114431 nonzeros
Coefficient statistics:
  Matrix range     [3e-03, 8e+03]
  Objective range  [4e-04, 1e+05]
  Bounds range     [1e-06, 6e+06]
  RHS range        [9e-04, 8e+06]
Iteration    Objective       Primal Inf.    Dual Inf.      Time
       0    6.8208542e+07   0.000000e+00   0.000000e+00      0s

Solved in 0 iterations and 0.02 seconds
Optimal objective  6.820854245e+07
